p tdp 54 105
28 31
12 24
18 20
32 40
12 25
1 44
41 53
19 35
43 45
4 17
27 36
22 52
2 37
39 51
7 19
13 54
18 39
6 22
9 47
10 42
40 50
37 46
43 48
3 26
30 31
45 51
5 23
26 49
12 52
11 31
14 32
29 49
38 47
33 46
13 44
15 20
47 48
11 36
5 26
7 21
17 34
42 54
41 50
3 35
8 36
12 36
16 46
6 26
33 38
6 18
13 53
17 26
31 42
38 49
21 38
7 24
20 38
5 24
14 21
10 14
5 20
15 44
34 40
2 54
3 36
17 49
22 43
7 9
25 31
13 49
17 28
1 17
36 38
2 52
10 16
20 44
7 25
34 53
9 54
15 40
9 49
13 29
31 51
15 28
38 40
24 32
13 35
8 38
17 29
2 5
11 13
6 30
34 52
7 18
35 52
5 22
10 37
5 43
46 53
27 40
35 38
14 48
18 23
1 33
3 4
